StudentsNr = 10;
InstructorsNr = 99;
DaysNr = 1;
SlotsPerDay = 15;
AvailabilitySlotsLenght = 1;
RoomNr = 2;
ProgrammNr = 2;
DegreeNr = 2;
RolesNr = 0;
CoursesNr = 5;
InstructorsProgramm = [{1, 2}, {1}, {1}, {2}, {1, 2}, {1, 2}, {2}, {1}, {2}, {1, 2}, {2}, {1}, {2}, {1}, {2}, {1}, {1}, {2}, {1, 2}, {2}, {1, 2}, {1, 2}, {1}, {1}, {2}, {1}, {1, 2}, {1, 2}, {1, 2}, {1}, {1}, {1}, {2}, {1}, {1}, {1, 2}, {1, 2}, {2}, {2}, {1, 2}, {2}, {1}, {1, 2}, {2}, {2}, {2}, {1}, {1, 2}, {2}, {1}, {1}, {1}, {1}, {1}, {1}, {1}, {2}, {1}, {1, 2}, {1}, {1}, {1, 2}, {1, 2}, {2}, {1, 2}, {1}, {1, 2}, {1, 2}, {2}, {2}, {2}, {1}, {1}, {1}, {2}, {1}, {1}, {2}, {1}, {1}, {2}, {2}, {1}, {2}, {2}, {2}, {1}, {1}, {1}, {1, 2}, {1}, {2}, {1}, {2}, {1, 2}, {2}, {1, 2}, {1}, {1}];
InstructorRolesPerProgramm = array2d(1..ProgrammNr,{},[]);
InstructorsAvailability = [|1, 1, 1, 1, 1, 1, 1, 1, 1, 1, 1, 1, 1, 0, 1, |1, 1, 1, 1, 1, 1, 1, 1, 0, 0, 0, 1, 1, 1, 1, |1, 1, 1, 1, 1, 1, 1, 1, 0, 1, 1, 1, 1, 1, 1, |1, 0, 0, 1, 1, 1, 0, 1, 1, 1, 0, 0, 1, 1, 1, |0, 1, 1, 1, 1, 1, 1, 1, 1, 1, 1, 1, 1, 0, 0, |1, 1, 1, 1, 1, 1, 1, 1, 1, 1, 1, 1, 1, 1, 1, |1, 1, 1, 1, 1, 0, 1, 0, 0, 0, 1, 1, 1, 1, 1, |0, 0, 0, 0, 0, 1, 1, 1, 1, 0, 0, 1, 1, 1, 1, |0, 0, 0, 0, 1, 1, 1, 1, 1, 1, 1, 0, 0, 1, 1, |0, 1, 1, 1, 1, 1, 1, 0, 1, 1, 1, 1, 1, 1, 1, |0, 1, 1, 1, 1, 1, 1, 1, 1, 1, 1, 0, 1, 1, 0, |0, 1, 1, 1, 1, 0, 1, 0, 1, 1, 1, 1, 1, 1, 1, |1, 1, 0, 1, 1, 1, 0, 0, 1, 0, 1, 1, 0, 1, 1, |1, 1, 1, 1, 1, 0, 0, 1, 1, 1, 0, 0, 1, 1, 1, |0, 1, 1, 1, 1, 1, 1, 1, 1, 1, 1, 1, 0, 0, 1, |0, 0, 1, 1, 1, 1, 1, 1, 0, 0, 0, 0, 0, 1, 1, |0, 1, 0, 1, 1, 1, 1, 1, 1, 1, 1, 1, 1, 1, 1, |1, 0, 1, 1, 1, 1, 1, 1, 1, 1, 1, 1, 0, 1, 1, |1, 1, 1, 1, 1, 1, 1, 1, 1, 0, 0, 0, 1, 1, 1, |0, 0, 1, 1, 1, 1, 0, 1, 1, 1, 0, 1, 1, 1, 1, |0, 1, 1, 1, 1, 1, 1, 1, 1, 1, 1, 1, 1, 0, 1, |0, 1, 1, 1, 1, 1, 1, 1, 1, 1, 1, 1, 1, 1, 1, |1, 1, 1, 1, 1, 1, 1, 0, 0, 0, 0, 1, 0, 1, 1, |0, 0, 1, 1, 1, 1, 1, 1, 1, 1, 0, 0, 1, 1, 1, |1, 1, 1, 1, 0, 0, 1, 1, 1, 0, 1, 1, 0, 1, 1, |0, 0, 1, 1, 1, 0, 0, 1, 1, 1, 0, 0, 1, 1, 0, |0, 1, 1, 1, 1, 1, 1, 1, 1, 1, 1, 1, 1, 1, 1, |0, 1, 1, 1, 1, 1, 1, 0, 1, 1, 1, 1, 1, 0, 1, |1, 1, 0, 0, 0, 1, 1, 1, 1, 1, 1, 1, 0, 1, 1, |1, 1, 1, 1, 1, 1, 1, 1, 1, 1, 1, 1, 1, 1, 1, |0, 0, 1, 1, 0, 0, 0, 0, 0, 0, 1, 1, 0, 0, 0, |0, 0, 1, 0, 1, 1, 1, 0, 1, 1, 1, 1, 0, 0, 1, |0, 1, 1, 1, 1, 1, 1, 1, 1, 1, 1, 1, 1, 1, 1, |0, 1, 0, 1, 0, 0, 1, 1, 1, 0, 1, 0, 0, 1, 1, |0, 0, 1, 1, 0, 1, 1, 1, 1, 1, 1, 1, 1, 1, 1, |0, 1, 1, 1, 1, 1, 1, 1, 1, 1, 1, 1, 0, 0, 1, |0, 0, 0, 1, 1, 1, 1, 1, 1, 1, 1, 1, 1, 1, 1, |0, 0, 1, 1, 1, 1, 1, 1, 1, 1, 0, 1, 1, 1, 1, |1, 1, 1, 1, 1, 1, 1, 1, 1, 1, 1, 1, 1, 1, 1, |0, 0, 1, 1, 1, 1, 1, 1, 0, 0, 0, 1, 1, 1, 1, |1, 1, 1, 0, 1, 1, 1, 1, 1, 1, 1, 1, 1, 1, 1, |1, 1, 0, 1, 1, 1, 1, 1, 1, 1, 1, 0, 0, 0, 1, |1, 1, 1, 1, 0, 0, 1, 0, 1, 1, 1, 1, 1, 1, 1, |0, 1, 1, 1, 1, 1, 1, 1, 1, 1, 1, 1, 1, 1, 1, |1, 0, 0, 0, 0, 0, 0, 0, 1, 1, 1, 1, 1, 1, 0, |0, 0, 1, 0, 0, 1, 1, 1, 1, 0, 0, 1, 0, 1, 1, |1, 1, 0, 0, 1, 1, 1, 1, 1, 0, 1, 1, 1, 1, 1, |1, 1, 1, 1, 1, 0, 1, 1, 1, 1, 1, 1, 0, 0, 1, |1, 1, 1, 1, 0, 1, 1, 1, 0, 1, 1, 1, 1, 1, 1, |0, 0, 1, 1, 1, 1, 1, 1, 0, 1, 1, 1, 1, 1, 1, |0, 0, 1, 1, 1, 1, 1, 1, 0, 1, 1, 1, 1, 0, 1, |0, 1, 1, 1, 1, 1, 1, 1, 1, 1, 1, 1, 0, 0, 0, |0, 0, 0, 0, 0, 0, 0, 0, 0, 1, 1, 1, 1, 1, 1, |0, 1, 1, 1, 1, 1, 1, 1, 1, 1, 1, 1, 1, 1, 0, |0, 1, 1, 1, 1, 1, 1, 1, 1, 0, 0, 0, 1, 1, 0, |1, 1, 1, 1, 1, 1, 1, 1, 1, 1, 1, 1, 0, 1, 1, |0, 1, 1, 0, 0, 1, 1, 0, 1, 1, 1, 1, 1, 1, 1, |1, 1, 1, 0, 1, 1, 0, 0, 0, 0, 1, 1, 0, 1, 1, |1, 1, 1, 1, 0, 0, 1, 1, 1, 1, 1, 1, 1, 1, 1, |0, 0, 0, 1, 1, 1, 1, 1, 1, 1, 1, 1, 1, 1, 1, |0, 0, 0, 1, 0, 0, 1, 1, 1, 0, 0, 0, 1, 0, 1, |0, 1, 0, 1, 0, 1, 1, 1, 1, 1, 1, 1, 1, 1, 1, |0, 1, 1, 1, 1, 1, 1, 1, 1, 1, 1, 1, 1, 1, 1, |0, 1, 1, 1, 1, 1, 1, 1, 1, 1, 1, 1, 1, 1, 1, |1, 1, 1, 1, 1, 1, 1, 1, 1, 1, 1, 1, 1, 1, 1, |1, 1, 1, 1, 1, 1, 0, 1, 0, 0, 0, 1, 1, 1, 0, |1, 1, 0, 0, 1, 1, 1, 1, 0, 0, 0, 1, 1, 1, 1, |1, 0, 1, 0, 0, 0, 1, 1, 1, 1, 0, 1, 1, 1, 1, |0, 1, 0, 1, 1, 1, 1, 1, 1, 0, 1, 1, 1, 1, 1, |0, 1, 1, 1, 1, 1, 0, 1, 1, 1, 1, 1, 1, 1, 1, |0, 0, 1, 1, 1, 1, 1, 1, 1, 1, 0, 1, 1, 1, 1, |0, 1, 1, 1, 1, 1, 1, 0, 0, 0, 0, 0, 1, 1, 0, |1, 0, 1, 1, 1, 1, 1, 1, 0, 1, 0, 0, 1, 1, 1, |0, 1, 1, 0, 0, 1, 1, 0, 1, 1, 1, 1, 0, 1, 1, |1, 1, 1, 1, 1, 1, 1, 1, 1, 1, 1, 0, 1, 1, 1, |0, 0, 0, 1, 1, 1, 1, 0, 1, 0, 0, 1, 1, 1, 1, |0, 1, 1, 1, 1, 1, 1, 1, 1, 1, 0, 1, 1, 1, 1, |0, 1, 1, 1, 1, 1, 1, 1, 0, 1, 1, 1, 1, 1, 1, |1, 1, 1, 1, 1, 1, 1, 1, 0, 1, 1, 1, 1, 1, 1, |0, 1, 1, 1, 1, 1, 1, 1, 1, 1, 1, 1, 1, 1, 1, |0, 1, 1, 1, 1, 1, 1, 1, 1, 1, 1, 1, 1, 1, 1, |0, 1, 1, 1, 1, 0, 1, 1, 0, 0, 1, 0, 1, 1, 1, |1, 1, 0, 1, 0, 1, 1, 1, 1, 1, 1, 1, 1, 1, 1, |0, 1, 1, 1, 1, 0, 1, 1, 1, 1, 1, 1, 1, 1, 1, |0, 1, 1, 1, 1, 1, 0, 1, 1, 1, 1, 1, 1, 1, 1, |1, 1, 0, 1, 1, 1, 1, 1, 1, 1, 0, 0, 0, 1, 1, |1, 1, 1, 1, 1, 1, 1, 1, 1, 1, 1, 1, 1, 0, 0, |0, 1, 1, 1, 1, 1, 1, 1, 1, 1, 1, 1, 1, 1, 1, |1, 1, 1, 1, 1, 1, 1, 1, 1, 1, 1, 1, 1, 1, 1, |0, 0, 0, 1, 0, 0, 0, 0, 1, 1, 1, 0, 0, 0, 1, |0, 1, 0, 1, 1, 0, 1, 0, 0, 0, 0, 1, 1, 0, 1, |1, 1, 1, 1, 1, 1, 1, 1, 1, 1, 1, 1, 1, 1, 1, |0, 0, 1, 1, 1, 1, 1, 0, 1, 1, 1, 0, 0, 1, 1, |1, 1, 0, 1, 1, 0, 0, 1, 0, 1, 1, 1, 1, 1, 1, |1, 1, 0, 0, 1, 1, 1, 1, 1, 1, 1, 1, 1, 1, 0, |0, 1, 1, 1, 1, 0, 0, 0, 1, 1, 1, 1, 1, 1, 1, |1, 1, 1, 1, 1, 1, 1, 1, 1, 0, 0, 0, 0, 1, 0, |1, 1, 1, 1, 1, 1, 1, 0, 0, 1, 1, 1, 1, 1, 1, |0, 1, 1, 1, 1, 0, 1, 1, 1, 1, 1, 1, 1, 1, 1|];
StudentsProgramm = [2, 2, 1, 1, 2, 1, 2, 2, 1, 1];
StudentsDegree = [2, 1, 1, 1, 1, 2, 2, 1, 2, 2];
StudentsSupervisorId = [95, 5, 52, 2, 36, 97, 69, 28, 58, 32];
StudentsCourseIds = [{}, {2, 4, 5}, {2, 4, 5}, {2, 3, 5}, {2, 3, 4}, {}, {}, {2, 4, 5}, {}, {}];
StudentsAvailability = [|1, 1, 1, 1, 1, 1, 1, 1, 1, 1, 1, 1, 1, 1, 1, |1, 1, 1, 1, 1, 1, 1, 1, 1, 1, 1, 1, 1, 0, 1, |1, 1, 1, 1, 1, 0, 0, 1, 1, 1, 1, 1, 1, 1, 1, |1, 1, 0, 1, 1, 1, 1, 1, 0, 0, 1, 1, 1, 1, 1, |0, 1, 1, 1, 1, 1, 1, 1, 1, 1, 0, 0, 1, 1, 1, |0, 0, 0, 0, 0, 1, 1, 1, 1, 1, 0, 0, 1, 1, 1, |0, 1, 1, 1, 1, 1, 1, 1, 1, 1, 1, 1, 1, 1, 1, |1, 1, 1, 1, 1, 1, 1, 1, 1, 1, 1, 1, 1, 1, 0, |1, 1, 1, 1, 1, 1, 1, 0, 0, 0, 1, 1, 1, 1, 1, |1, 1, 1, 1, 1, 1, 1, 1, 0, 1, 1, 1, 1, 1, 0|];
TheoryticalMinCard = [1, 3, 3, 4, 3, 1, 1, 4, 1, 1];
CoursesInstructorIds = [{3, 4, 5, 7, 10, 11, 12, 15, 16, 18, 22, 23, 24, 28, 30, 36, 38, 41, 42, 48, 49, 52, 54, 58, 59, 61, 63, 67, 69, 73, 77, 78, 82, 84, 87, 88, 89, 91, 93, 94, 95, 96, 99}, {3, 5, 6, 7, 8, 9, 10, 13, 14, 18, 19, 26, 27, 30, 33, 34, 36, 37, 40, 41, 42, 43, 45, 48, 50, 52, 53, 59, 62, 64, 65, 68, 69, 70, 72, 77, 80, 81, 82, 83, 84, 88, 91, 93, 94, 95, 96}, {1, 3, 4, 5, 6, 8, 11, 12, 13, 15, 16, 18, 20, 21, 23, 27, 28, 31, 32, 33, 34, 38, 39, 40, 42, 44, 45, 46, 47, 48, 54, 55, 56, 58, 59, 60, 61, 62, 63, 64, 65, 66, 67, 68, 69, 70, 71, 72, 73, 78, 79, 80, 82, 85, 86, 87, 88, 90, 91, 93, 94, 98}, {1, 2, 6, 8, 12, 13, 17, 18, 26, 27, 31, 36, 41, 42, 43, 44, 45, 46, 47, 51, 52, 54, 55, 56, 57, 58, 59, 60, 61, 63, 65, 67, 68, 70, 74, 75, 76, 81, 83, 89, 90, 93, 95, 97, 99}, {3, 11, 12, 16, 18, 22, 27, 33, 35, 37, 49, 50, 57, 62, 64, 66, 69, 72, 73, 75, 83, 86, 88, 91, 94, 99}];
RolesDemands = [];
RolesContinuity = [];
ExamLen = [2, 1, 1, 1, 1, 2, 2, 1, 2, 2];
LunchTsMinLen = 1;
LunchStarts = [7..11];
SupervisorAvailable = 0;
OptimalLunchLenght = [1, 1];
OptimalStartTs = [0, 0];
OptimalFinishTs = [0, 15];
MinimizeRooms = 200;
RolesSoftContinuity = array2d(1..2,{},[]);
SameDegreeInRoom = 10;
Mergeability = 2;
